; benchmark generated from python API
(set-info :status unknown)
(declare-fun S_1 () Real)
(declare-fun S_2 () Real)
(declare-fun S_3 () Real)
(declare-fun L_0 () Real)
(declare-fun A_2 () Real)
(declare-fun A_1 () Real)
(declare-fun A_0 () Real)
(declare-fun S_0 () Real)
(declare-fun A_3 () Real)
(declare-fun Q_3 () Real)
(assert
 (let (($x972 (>= Q_3 0.0)))
 (let ((?x638 (* (- 1.0) A_2)))
 (let ((?x1023 (* (- 1.0) S_3)))
 (let ((?x522 (* (- 1.0) Q_3)))
 (let ((?x552 (* (- 1.0) A_1)))
 (let (($x1760 (<= (+ A_2 ?x1023 ?x552 S_1) 0.0)))
 (let (($x19501 (or (<= (+ ?x552 ?x522 A_0) 0.0) $x1760 (<= (+ ?x552 ?x522 A_3 (* (- 2.0) S_3) (* 2.0 S_1)) 0.0) (<= (+ ?x552 ?x522 A_3 ?x1023 S_1 A_0 ?x638) 0.0))))
 (let ((?x2235 (* 2.0 S_1)))
 (let ((?x3466 (* (- (/ 2.0 3.0)) A_3)))
 (let ((?x3445 (* (/ 2.0 3.0) Q_3)))
 (let ((?x1327 (* 3.0 S_1)))
 (let ((?x1321 (* 3.0 L_0)))
 (let ((?x736 (* (- 1.0) A_3)))
 (let ((?x1163 (* (- 2.0) A_0)))
 (let (($x6174 (<= (+ ?x1163 ?x736 ?x1321 ?x1327) 0.0)))
 (let (($x1775 (<= (+ A_2 Q_3 ?x736 S_1 L_0 (* (- 1.0) A_0)) 0.0)))
 (let (($x31083 (or $x1775 (not $x6174) (<= (+ (* (- (/ 4.0 3.0)) A_0) ?x3445 ?x3466 (* 2.0 L_0) ?x2235) 0.0))))
 (let ((?x936 (* (- 1.0) S_2)))
 (let ((?x935 (* (/ 1.0 3.0) S_3)))
 (let ((?x3478 (+ (* (/ 2.0 3.0) A_1) ?x3445 ?x3466 ?x935 ?x936 (* (/ 2.0 3.0) S_0) (* (- (/ 2.0 3.0)) A_0) (* (/ 2.0 3.0) A_2))))
 (let (($x2542 (= Q_3 0.0)))
 (let (($x1405 (<= (+ A_1 ?x936 (* (- 1.0) L_0)) 0.0)))
 (let (($x938 (<= (+ (* (/ 2.0 3.0) A_0) (* (- (/ 2.0 3.0)) L_0) ?x935 ?x936) 0.0)))
 (let ((?x1481 (* (- (/ 1.0 2.0)) A_0)))
 (let ((?x3595 (* (- (/ 1.0 2.0)) A_3)))
 (let ((?x1471 (* (/ 1.0 2.0) Q_3)))
 (let ((?x1478 (* (/ 1.0 2.0) A_1)))
 (let ((?x4542 (+ ?x1478 ?x1471 ?x3595 (* (- (/ 1.0 2.0)) S_2) (* (/ 1.0 2.0) S_0) ?x1481 (* (/ 1.0 2.0) A_2))))
 (let (($x14265 (or $x938 $x1405 (not (<= (+ Q_3 A_1 ?x936 S_0 (* (- 1.0) A_0)) 0.0)) (<= ?x4542 0.0))))
 (let (($x17396 (or (<= (+ ?x1163 Q_3 ?x736 ?x1321 ?x1327) 0.0) (<= (+ (* 2.0 A_2) Q_3 ?x736 ?x552) 0.0) (<= (+ Q_3 L_0 S_1 ?x552) 0.0))))
 (let (($x2323 (<= (+ A_2 ?x736) 0.0)))
 (let (($x1861 (<= (+ Q_3 A_1 ?x936 S_0 (* (- 1.0) A_0)) 0.0)))
 (let (($x30528 (or $x2542 (<= (+ ?x1481 Q_3 ?x736 (* (/ 3.0 2.0) L_0) (* (/ 3.0 2.0) S_2)) 0.0))))
 (let (($x6942 (<= (+ (* (- 1.0) A_0) L_0 ?x1023 ?x2235) 0.0)))
 (let (($x1147 (<= (+ A_2 ?x1023 (* (- 1.0) L_0)) 0.0)))
 (let (($x8251 (or $x1147 (not $x1760) (<= (+ A_2 Q_3 ?x1023 S_0 (* (- 1.0) A_0)) 0.0) (<= (+ A_2 Q_3 ?x1023 S_1 ?x552) 0.0) $x6942)))
 (let ((?x948 (* (- 1.0) S_1)))
 (let ((?x548 (* (- 1.0) L_0)))
 (let ((?x1189 (* 2.0 A_0)))
 (let (($x4044 (<= (+ ?x638 ?x522 S_3 ?x1189 ?x936 ?x548 ?x948) 0.0)))
 (let (($x2170 (<= (+ ?x638 ?x522 A_3 A_0 ?x936 ?x548) 0.0)))
 (let (($x1672 (<= (+ ?x638 A_1) 0.0)))
 (let ((?x1454 (* (- (/ 1.0 2.0)) L_0)))
 (let ((?x1441 (* (/ 1.0 2.0) A_0)))
 (let ((?x1440 (* (/ 1.0 2.0) S_3)))
 (let ((?x1469 (* (- (/ 1.0 2.0)) Q_3)))
 (let ((?x1449 (* (- (/ 1.0 2.0)) A_2)))
 (let (($x1480 (<= (+ ?x1449 ?x1469 ?x1440 ?x1441 ?x936 ?x1454 ?x1478) 0.0)))
 (let (($x2093 (<= (+ ?x638 S_3 A_0 ?x936) 0.0)))
 (let (($x1113 (<= (+ A_1 Q_3 ?x736 S_3 ?x936) 0.0)))
 (and (or $x1672 $x2093) (or $x1113 $x2093) (or $x1405 $x1861 $x2093 $x2542) (or $x2170 (<= (+ ?x638 ?x522 A_1) 0.0)) (or $x1480 $x1672 $x2170) (or $x1113 $x1480 $x2170) (or $x1405 $x1480 $x1861 $x2170 $x2542) (or $x1405 $x1861 $x2170 (<= (+ ?x552 S_2 ?x948 A_0) 0.0) $x4044) (or $x1113 $x2170 $x4044) (or $x1672 $x2170 (<= (+ ?x638 ?x522 A_0 S_2 ?x948) 0.0)) (or $x1672 $x2170 $x4044) (or $x938 $x1113) (or $x938 $x1672) (or $x1775 $x2542 $x6942) (or $x2323 $x6942) (or $x1760 $x2542 $x6942) $x8251 $x30528 (or $x938 $x1405 $x1861 $x2542) (or $x938 $x1405 $x1861 $x2323) (or $x2542 (<= (+ (* (- (/ 1.0 2.0)) A_1) ?x1471 ?x3595 S_2 L_0) 0.0)) $x17396 $x14265 (or $x938 $x1405 $x2542 (<= ?x3478 0.0)) (or $x1775 $x2542 $x6174) $x31083 $x19501 $x972 (<= (+ Q_3 ?x736 L_0 S_3) 0.0) (<= (+ ?x948 S_0) 0.0) (<= (+ S_0 L_0 (* (- 1.0) A_0)) 0.0) (<= (+ ?x552 S_1 L_0) 0.0) (<= (+ ?x638 S_2 L_0) 0.0) (<= (+ ?x1023 S_2) 0.0) (<= (+ ?x936 S_1) 0.0)))))))))))))))))))))))))))))))))))))))))))))))))))))
(check-sat)
